\ This file has been generated by DOcplex
\ ENCODING=ISO-8859-1
\Problem name: mknap1

Maximize
 obj: 600.100000000000 x_0 + 310.500000000000 x_1 + 1800 x_2 + 3850 x_3
      + 18.600000000000 x_4 + 198.700000000000 x_5 + 882 x_6 + 4200 x_7
      + 402.500000000000 x_8 + 327 x_9
Subject To
 c1: 20 x_0 + 5 x_1 + 100 x_2 + 200 x_3 + 2 x_4 + 4 x_5 + 60 x_6 + 150 x_7
     + 80 x_8 + 40 x_9 <= 450
 c2: 20 x_0 + 7 x_1 + 130 x_2 + 280 x_3 + 2 x_4 + 8 x_5 + 110 x_6 + 210 x_7
     + 100 x_8 + 40 x_9 <= 540
 c3: 60 x_0 + 3 x_1 + 50 x_2 + 100 x_3 + 4 x_4 + 2 x_5 + 20 x_6 + 40 x_7 + 6 x_8
     + 12 x_9 <= 200
 c4: 60 x_0 + 8 x_1 + 70 x_2 + 200 x_3 + 4 x_4 + 6 x_5 + 40 x_6 + 70 x_7
     + 16 x_8 + 20 x_9 <= 360
 c5: 60 x_0 + 13 x_1 + 70 x_2 + 250 x_3 + 4 x_4 + 10 x_5 + 60 x_6 + 90 x_7
     + 20 x_8 + 24 x_9 <= 440
 c6: 60 x_0 + 13 x_1 + 70 x_2 + 280 x_3 + 4 x_4 + 10 x_5 + 70 x_6 + 105 x_7
     + 22 x_8 + 28 x_9 <= 480
 c7: 5 x_0 + 2 x_1 + 20 x_2 + 100 x_3 + 2 x_4 + 5 x_5 + 10 x_6 + 60 x_7 <= 200
 c8: 45 x_0 + 14 x_1 + 80 x_2 + 180 x_3 + 6 x_4 + 10 x_5 + 40 x_6 + 100 x_7
     + 20 x_8 <= 360
 c9: 55 x_0 + 14 x_1 + 80 x_2 + 200 x_3 + 6 x_4 + 10 x_5 + 50 x_6 + 140 x_7
     + 30 x_8 + 40 x_9 <= 440
 c10: 65 x_0 + 14 x_1 + 80 x_2 + 220 x_3 + 6 x_4 + 10 x_5 + 50 x_6 + 180 x_7
      + 30 x_8 + 50 x_9 <= 480

Bounds
 0 <= x_0 <= 1
 0 <= x_1 <= 1
 0 <= x_2 <= 1
 0 <= x_3 <= 1
 0 <= x_4 <= 1
 0 <= x_5 <= 1
 0 <= x_6 <= 1
 0 <= x_7 <= 1
 0 <= x_8 <= 1
 0 <= x_9 <= 1

Binaries
 x_0 x_1 x_2 x_3 x_4 x_5 x_6 x_7 x_8 x_9
End
